\* Source Pyomo model name=unknown *\

max 
x1:
+1 x2
+1 x3
+1 x4
+1 x5
+1 x6
+1 x7
+1 x8
+1 x9
+1 x10
+1 x11

s.t.

c_e_x12_:
+1 x13
= 0

c_e_x14_:
+1 x15
= 0

c_e_x16_:
+1 x17
= 0

c_e_x18_:
+1 x19
= 0

c_u_x20_:
+1 x21
-500 x22
<= 0

c_u_x23_:
+1 x24
-500 x22
<= 0

c_e_x25_:
+1 x26
= 0

c_e_x27_:
+1 x28
= 0

c_e_x29_:
+1 x30
= 0

c_e_x31_:
+1 x32
= 0

c_e_x33_:
+1 x34
= 0

c_e_x35_:
+1 x36
= 0

c_u_x37_:
+1 x38
-500 x39
<= 0

c_e_x40_:
+1 x41
= 0

c_e_x42_:
+1 x43
= 0

c_e_x44_:
+1 x45
= 0

c_e_x46_:
+1 x47
= 0

c_e_x48_:
+1 x49
= 0

c_u_x50_:
+1 x51
-500 x39
<= 0

c_e_x52_:
+1 x53
= 0

c_u_x54_:
+1 x55
-500 x56
<= 0

c_e_x57_:
+1 x58
= 0

c_e_x59_:
+1 x60
= 0

c_e_x61_:
+1 x62
= 0

c_e_x63_:
+1 x64
= 0

c_e_x65_:
+1 x66
= 0

c_u_x67_:
+1 x68
-500 x56
<= 0

c_e_x69_:
+1 x70
= 0

c_e_x71_:
+1 x72
= 0

c_u_x73_:
+1 x74
-500 x56
<= 0

c_e_x75_:
+1 x76
= 0

c_u_x77_:
+1 x78
-500 x79
<= 0

c_u_x80_:
+1 x81
-500 x79
<= 0

c_e_x82_:
+1 x83
= 0

c_u_x84_:
+1 x85
-500 x79
<= 0

c_e_x86_:
+1 x87
= 0

c_e_x88_:
+1 x89
= 0

c_e_x90_:
+1 x91
= 0

c_e_x92_:
+1 x93
= 0

c_e_x94_:
+1 x95
= 0

c_e_x96_:
+1 x97
= 0

c_e_x98_:
+1 x99
= 0

c_e_x100_:
+1 x101
= 0

c_u_x102_:
+1 x103
-500 x104
<= 0

c_e_x105_:
+1 x106
= 0

c_e_x107_:
+1 x108
= 0

c_e_x109_:
+1 x110
= 0

c_u_x111_:
+1 x112
-500 x104
<= 0

c_e_x113_:
+1 x114
= 0

c_e_x115_:
+1 x116
= 0

c_u_x117_:
-1 x21
+5 x22
<= 0

c_u_x118_:
-1 x24
+5 x22
<= 0

c_u_x119_:
-1 x38
+5 x39
<= 0

c_u_x120_:
-1 x51
+5 x39
<= 0

c_u_x121_:
-1 x55
+5 x56
<= 0

c_u_x122_:
-1 x68
+5 x56
<= 0

c_u_x123_:
-1 x74
+5 x56
<= 0

c_u_x124_:
-1 x78
+5 x79
<= 0

c_u_x125_:
-1 x81
+5 x79
<= 0

c_u_x126_:
-1 x85
+5 x79
<= 0

c_u_x127_:
-1 x103
+5 x104
<= 0

c_u_x128_:
-1 x112
+5 x104
<= 0

c_u_x129_:
+1 x130
+1 x131
+1 x132
<= 1

c_u_x133_:
+1 x134
+1 x135
+1 x136
<= 1

c_u_x137_:
+1 x138
+1 x139
+1 x140
<= 1

c_u_x141_:
+1 x142
+1 x143
+1 x144
<= 1

c_u_x145_:
+1 x146
+1 x147
+1 x148
<= 1

c_e_x149_:
+1 x22
-1 x130
-1 x131
-1 x132
= 0

c_e_x150_:
+1 x39
-1 x134
-1 x135
-1 x136
= 0

c_e_x151_:
+1 x56
-1 x138
-1 x139
-1 x140
= 0

c_e_x152_:
+1 x79
-1 x142
-1 x143
-1 x144
= 0

c_e_x153_:
+1 x104
-1 x146
-1 x147
-1 x148
= 0

c_u_x154_:
-0.34 x21
-2.1 x24
+593.55 x22
<= 0

c_u_x155_:
-2.95 x38
-0.77 x51
+500.94999999999993 x39
<= 0

c_u_x156_:
-1.65 x55
-3.4 x68
-3.55 x74
+486.29999999999995 x56
<= 0

c_u_x157_:
-0.31 x78
-2.95 x81
-0.34 x85
+607.65 x79
<= 0

c_u_x158_:
-2.36 x103
-2.5 x112
+579.5999999999999 x104
<= 0

c_u_x159_:
+0.34 x21
+2.1 x24
-1200.7500000000002 x22
<= 0

c_u_x160_:
+2.95 x38
+0.77 x51
-1108.15 x39
<= 0

c_u_x161_:
+1.65 x55
+3.4 x68
+3.55 x74
-1093.5000000000002 x56
<= 0

c_u_x162_:
+0.31 x78
+2.95 x81
+0.34 x85
-1214.8500000000001 x79
<= 0

c_u_x163_:
+2.36 x103
+2.5 x112
-1186.8000000000002 x104
<= 0

c_u_x164_:
-0.061 x21
-0.7250000000000001 x24
+9.327499999999999 x22
<= 0

c_u_x165_:
-0.6375000000000001 x38
+0.03549999999999999 x51
+26.1735 x39
<= 0

c_u_x166_:
-0.9925 x55
+0.41000000000000003 x68
+0.03249999999999997 x74
-6.664999999999999 x56
<= 0

c_u_x167_:
+0.006499999999999999 x78
-0.6375000000000001 x81
-0.061 x85
+10.5125 x79
<= 0

c_u_x168_:
+0.09399999999999997 x103
-0.665 x112
-1.759999999999998 x104
<= 0

c_u_x169_:
-0.006999999999999992 x21
+0.30500000000000005 x24
-32.2975 x22
<= 0

c_u_x170_:
+0.0475000000000001 x38
-0.18949999999999995 x51
-67.6635 x39
<= 0

c_u_x171_:
+0.6625000000000001 x55
-1.0899999999999999 x68
-0.7424999999999999 x74
-37.755 x56
<= 0

c_u_x172_:
-0.0685 x78
+0.0475000000000001 x81
-0.006999999999999992 x85
-30.662499999999994 x79
<= 0

c_u_x173_:
-0.566 x103
+0.16500000000000004 x112
-24.0 x104
<= 0

c_u_x174_:
+1 x2
-1 x130
<= 0

c_u_x175_:
+1 x2
-1 x135
<= 0

c_u_x176_:
+1 x2
-1 x140
<= 0

c_u_x177_:
+1 x3
-1 x130
<= 0

c_u_x178_:
+1 x3
-1 x135
<= 0

c_u_x179_:
+1 x3
-1 x144
<= 0

c_u_x180_:
+1 x4
-1 x130
<= 0

c_u_x181_:
+1 x4
-1 x135
<= 0

c_u_x182_:
+1 x4
-1 x148
<= 0

c_u_x183_:
+1 x5
-1 x130
<= 0

c_u_x184_:
+1 x5
-1 x139
<= 0

c_u_x185_:
+1 x5
-1 x144
<= 0

c_u_x186_:
+1 x6
-1 x130
<= 0

c_u_x187_:
+1 x6
-1 x139
<= 0

c_u_x188_:
+1 x6
-1 x148
<= 0

c_u_x189_:
+1 x7
-1 x130
<= 0

c_u_x190_:
+1 x7
-1 x143
<= 0

c_u_x191_:
+1 x7
-1 x148
<= 0

c_u_x192_:
+1 x8
-1 x134
<= 0

c_u_x193_:
+1 x8
-1 x139
<= 0

c_u_x194_:
+1 x8
-1 x144
<= 0

c_u_x195_:
+1 x9
-1 x134
<= 0

c_u_x196_:
+1 x9
-1 x139
<= 0

c_u_x197_:
+1 x9
-1 x148
<= 0

c_u_x198_:
+1 x10
-1 x134
<= 0

c_u_x199_:
+1 x10
-1 x143
<= 0

c_u_x200_:
+1 x10
-1 x148
<= 0

c_u_x201_:
+1 x11
-1 x138
<= 0

c_u_x202_:
+1 x11
-1 x143
<= 0

c_u_x203_:
+1 x11
-1 x148
<= 0

c_u_x204_:
+2936 x2
-0.34 x21
-2.1 x24
-2.95 x38
-0.77 x51
-1.65 x55
-3.4 x68
-3.55 x74
-114.85 x22
-207.45000000000002 x39
-222.1 x56
<= 0

c_u_x205_:
+2936 x3
-0.34 x21
-2.1 x24
-2.95 x38
-0.77 x51
-0.31 x78
-2.95 x81
-0.34 x85
-114.85 x22
-207.45000000000002 x39
-100.75 x79
<= 0

c_u_x206_:
+2936 x4
-0.34 x21
-2.1 x24
-2.95 x38
-0.77 x51
-2.36 x103
-2.5 x112
-114.85 x22
-207.45000000000002 x39
-128.8 x104
<= 0

c_u_x207_:
+2936 x5
-0.34 x21
-2.1 x24
-1.65 x55
-3.4 x68
-3.55 x74
-0.31 x78
-2.95 x81
-0.34 x85
-114.85 x22
-222.1 x56
-100.75 x79
<= 0

c_u_x208_:
+2936 x6
-0.34 x21
-2.1 x24
-1.65 x55
-3.4 x68
-3.55 x74
-2.36 x103
-2.5 x112
-114.85 x22
-222.1 x56
-128.8 x104
<= 0

c_u_x209_:
+2936 x7
-0.34 x21
-2.1 x24
-0.31 x78
-2.95 x81
-0.34 x85
-2.36 x103
-2.5 x112
-114.85 x22
-100.75 x79
-128.8 x104
<= 0

c_u_x210_:
+2936 x8
-2.95 x38
-0.77 x51
-1.65 x55
-3.4 x68
-3.55 x74
-0.31 x78
-2.95 x81
-0.34 x85
-207.45000000000002 x39
-222.1 x56
-100.75 x79
<= 0

c_u_x211_:
+2936 x9
-2.95 x38
-0.77 x51
-1.65 x55
-3.4 x68
-3.55 x74
-2.36 x103
-2.5 x112
-207.45000000000002 x39
-222.1 x56
-128.8 x104
<= 0

c_u_x212_:
+2936 x10
-2.95 x38
-0.77 x51
-0.31 x78
-2.95 x81
-0.34 x85
-2.36 x103
-2.5 x112
-207.45000000000002 x39
-100.75 x79
-128.8 x104
<= 0

c_u_x213_:
+2936 x11
-1.65 x55
-3.4 x68
-3.55 x74
-0.31 x78
-2.95 x81
-0.34 x85
-2.36 x103
-2.5 x112
-222.1 x56
-100.75 x79
-128.8 x104
<= 0

c_u_x214_:
+6864 x2
+0.34 x21
+2.1 x24
+2.95 x38
+0.77 x51
+1.65 x55
+3.4 x68
+3.55 x74
+114.85 x22
+207.45000000000002 x39
+222.1 x56
<= 10000

c_u_x215_:
+6864 x3
+0.34 x21
+2.1 x24
+2.95 x38
+0.77 x51
+0.31 x78
+2.95 x81
+0.34 x85
+114.85 x22
+207.45000000000002 x39
+100.75 x79
<= 10000

c_u_x216_:
+6864 x4
+0.34 x21
+2.1 x24
+2.95 x38
+0.77 x51
+2.36 x103
+2.5 x112
+114.85 x22
+207.45000000000002 x39
+128.8 x104
<= 10000

c_u_x217_:
+6864 x5
+0.34 x21
+2.1 x24
+1.65 x55
+3.4 x68
+3.55 x74
+0.31 x78
+2.95 x81
+0.34 x85
+114.85 x22
+222.1 x56
+100.75 x79
<= 10000

c_u_x218_:
+6864 x6
+0.34 x21
+2.1 x24
+1.65 x55
+3.4 x68
+3.55 x74
+2.36 x103
+2.5 x112
+114.85 x22
+222.1 x56
+128.8 x104
<= 10000

c_u_x219_:
+6864 x7
+0.34 x21
+2.1 x24
+0.31 x78
+2.95 x81
+0.34 x85
+2.36 x103
+2.5 x112
+114.85 x22
+100.75 x79
+128.8 x104
<= 10000

c_u_x220_:
+6864 x8
+2.95 x38
+0.77 x51
+1.65 x55
+3.4 x68
+3.55 x74
+0.31 x78
+2.95 x81
+0.34 x85
+207.45000000000002 x39
+222.1 x56
+100.75 x79
<= 10000

c_u_x221_:
+6864 x9
+2.95 x38
+0.77 x51
+1.65 x55
+3.4 x68
+3.55 x74
+2.36 x103
+2.5 x112
+207.45000000000002 x39
+222.1 x56
+128.8 x104
<= 10000

c_u_x222_:
+6864 x10
+2.95 x38
+0.77 x51
+0.31 x78
+2.95 x81
+0.34 x85
+2.36 x103
+2.5 x112
+207.45000000000002 x39
+100.75 x79
+128.8 x104
<= 10000

c_u_x223_:
+6864 x11
+1.65 x55
+3.4 x68
+3.55 x74
+0.31 x78
+2.95 x81
+0.34 x85
+2.36 x103
+2.5 x112
+222.1 x56
+100.75 x79
+128.8 x104
<= 10000

c_u_x224_:
+108 x2
-0.028 x21
-0.26 x24
-0.27 x38
-0.02 x51
-0.31 x55
-0.025 x68
-0.125 x74
-1.975 x22
-1.236 x39
-9.995 x56
<= 0

c_u_x225_:
+108 x3
-0.028 x21
-0.26 x24
-0.27 x38
-0.02 x51
-0.01 x78
-0.27 x81
-0.028 x85
-1.975 x22
-1.236 x39
-1.1500000000000001 x79
<= 0

c_u_x226_:
+108 x4
-0.028 x21
-0.26 x24
-0.27 x38
-0.02 x51
-0.065 x103
-0.26 x112
-1.975 x22
-1.236 x39
-5.27 x104
<= 0

c_u_x227_:
+108 x5
-0.028 x21
-0.26 x24
-0.31 x55
-0.025 x68
-0.125 x74
-0.01 x78
-0.27 x81
-0.028 x85
-1.975 x22
-9.995 x56
-1.1500000000000001 x79
<= 0

c_u_x228_:
+108 x6
-0.028 x21
-0.26 x24
-0.31 x55
-0.025 x68
-0.125 x74
-0.065 x103
-0.26 x112
-1.975 x22
-9.995 x56
-5.27 x104
<= 0

c_u_x229_:
+108 x7
-0.028 x21
-0.26 x24
-0.01 x78
-0.27 x81
-0.028 x85
-0.065 x103
-0.26 x112
-1.975 x22
-1.1500000000000001 x79
-5.27 x104
<= 0

c_u_x230_:
+108 x8
-0.27 x38
-0.02 x51
-0.31 x55
-0.025 x68
-0.125 x74
-0.01 x78
-0.27 x81
-0.028 x85
-1.236 x39
-9.995 x56
-1.1500000000000001 x79
<= 0

c_u_x231_:
+108 x9
-0.27 x38
-0.02 x51
-0.31 x55
-0.025 x68
-0.125 x74
-0.065 x103
-0.26 x112
-1.236 x39
-9.995 x56
-5.27 x104
<= 0

c_u_x232_:
+108 x10
-0.27 x38
-0.02 x51
-0.01 x78
-0.27 x81
-0.028 x85
-0.065 x103
-0.26 x112
-1.236 x39
-1.1500000000000001 x79
-5.27 x104
<= 0

c_u_x233_:
+108 x11
-0.31 x55
-0.025 x68
-0.125 x74
-0.01 x78
-0.27 x81
-0.028 x85
-0.065 x103
-0.26 x112
-9.995 x56
-1.1500000000000001 x79
-5.27 x104
<= 0

c_u_x234_:
+9872 x2
+0.028 x21
+0.26 x24
+0.27 x38
+0.02 x51
+0.31 x55
+0.025 x68
+0.125 x74
+1.975 x22
+1.236 x39
+9.995 x56
<= 10000

c_u_x235_:
+9872 x3
+0.028 x21
+0.26 x24
+0.27 x38
+0.02 x51
+0.01 x78
+0.27 x81
+0.028 x85
+1.975 x22
+1.236 x39
+1.1500000000000001 x79
<= 10000

c_u_x236_:
+9872 x4
+0.028 x21
+0.26 x24
+0.27 x38
+0.02 x51
+0.065 x103
+0.26 x112
+1.975 x22
+1.236 x39
+5.27 x104
<= 10000

c_u_x237_:
+9872 x5
+0.028 x21
+0.26 x24
+0.31 x55
+0.025 x68
+0.125 x74
+0.01 x78
+0.27 x81
+0.028 x85
+1.975 x22
+9.995 x56
+1.1500000000000001 x79
<= 10000

c_u_x238_:
+9872 x6
+0.028 x21
+0.26 x24
+0.31 x55
+0.025 x68
+0.125 x74
+0.065 x103
+0.26 x112
+1.975 x22
+9.995 x56
+5.27 x104
<= 10000

c_u_x239_:
+9872 x7
+0.028 x21
+0.26 x24
+0.01 x78
+0.27 x81
+0.028 x85
+0.065 x103
+0.26 x112
+1.975 x22
+1.1500000000000001 x79
+5.27 x104
<= 10000

c_u_x240_:
+9872 x8
+0.27 x38
+0.02 x51
+0.31 x55
+0.025 x68
+0.125 x74
+0.01 x78
+0.27 x81
+0.028 x85
+1.236 x39
+9.995 x56
+1.1500000000000001 x79
<= 10000

c_u_x241_:
+9872 x9
+0.27 x38
+0.02 x51
+0.31 x55
+0.025 x68
+0.125 x74
+0.065 x103
+0.26 x112
+1.236 x39
+9.995 x56
+5.27 x104
<= 10000

c_u_x242_:
+9872 x10
+0.27 x38
+0.02 x51
+0.01 x78
+0.27 x81
+0.028 x85
+0.065 x103
+0.26 x112
+1.236 x39
+1.1500000000000001 x79
+5.27 x104
<= 10000

c_u_x243_:
+9872 x11
+0.31 x55
+0.025 x68
+0.125 x74
+0.01 x78
+0.27 x81
+0.028 x85
+0.065 x103
+0.26 x112
+9.995 x56
+1.1500000000000001 x79
+5.27 x104
<= 10000

bounds
   0 <= x2 <= 1
   0 <= x3 <= 1
   0 <= x4 <= 1
   0 <= x5 <= 1
   0 <= x6 <= 1
   0 <= x7 <= 1
   0 <= x8 <= 1
   0 <= x9 <= 1
   0 <= x10 <= 1
   0 <= x11 <= 1
   0 <= x13 <= +inf
   0 <= x15 <= +inf
   0 <= x17 <= +inf
   0 <= x19 <= +inf
   0 <= x21 <= +inf
   0 <= x24 <= +inf
   0 <= x26 <= +inf
   0 <= x28 <= +inf
   0 <= x30 <= +inf
   0 <= x32 <= +inf
   0 <= x34 <= +inf
   0 <= x36 <= +inf
   0 <= x38 <= +inf
   0 <= x41 <= +inf
   0 <= x43 <= +inf
   0 <= x45 <= +inf
   0 <= x47 <= +inf
   0 <= x49 <= +inf
   0 <= x51 <= +inf
   0 <= x53 <= +inf
   0 <= x55 <= +inf
   0 <= x58 <= +inf
   0 <= x60 <= +inf
   0 <= x62 <= +inf
   0 <= x64 <= +inf
   0 <= x66 <= +inf
   0 <= x68 <= +inf
   0 <= x70 <= +inf
   0 <= x72 <= +inf
   0 <= x74 <= +inf
   0 <= x76 <= +inf
   0 <= x78 <= +inf
   0 <= x81 <= +inf
   0 <= x83 <= +inf
   0 <= x85 <= +inf
   0 <= x87 <= +inf
   0 <= x89 <= +inf
   0 <= x91 <= +inf
   0 <= x93 <= +inf
   0 <= x95 <= +inf
   0 <= x97 <= +inf
   0 <= x99 <= +inf
   0 <= x101 <= +inf
   0 <= x103 <= +inf
   0 <= x106 <= +inf
   0 <= x108 <= +inf
   0 <= x110 <= +inf
   0 <= x112 <= +inf
   0 <= x114 <= +inf
   0 <= x116 <= +inf
   0 <= x22 <= 1
   0 <= x39 <= 1
   0 <= x56 <= 1
   0 <= x79 <= 1
   0 <= x104 <= 1
   0 <= x130 <= 1
   0 <= x131 <= 1
   0 <= x132 <= 1
   0 <= x134 <= 1
   0 <= x135 <= 1
   0 <= x136 <= 1
   0 <= x138 <= 1
   0 <= x139 <= 1
   0 <= x140 <= 1
   0 <= x142 <= 1
   0 <= x143 <= 1
   0 <= x144 <= 1
   0 <= x146 <= 1
   0 <= x147 <= 1
   0 <= x148 <= 1
binary
  x2
  x3
  x4
  x5
  x6
  x7
  x8
  x9
  x10
  x11
  x22
  x39
  x56
  x79
  x104
  x130
  x131
  x132
  x134
  x135
  x136
  x138
  x139
  x140
  x142
  x143
  x144
  x146
  x147
  x148
end
